projet_m2_wvcp/projet_m2_wvcp/original_wvcp_dzn/p07.clq.dzn
cliques=[{5,14,10,0,19},{1,0,3,2,4},{1,0,3,2,4},{1,0,3,2,4},{1,0,3,2,4},{5,14,10,0,19},{5,9,6,8,7},{5,9,6,8,7},{5,9,6,8,7},{5,9,6,8,7},{5,14,10,0,19},{13,10,11,12},{13,10,11,12},{13,10,11,12},{5,14,10,0,19},{18,16,14,15,17},{18,16,14,15,17},{18,16,14,15,17},{18,16,14,15,17},{5,14,10,0,19},{1,6,11,15,20},{16,2,21,7,12},{13,3,22,8,17},{18,9,23,4}];
nr_cliques=24;
