projet_m2_wvcp/projet_m2_wvcp/original_wvcp_dzn/p07.dzn
name="p07";
nr_vertices=24;
nr_edges=92;
neighborhoods=[{1,2,3,4,5,10,14,19},{0,2,3,4,6,11,15,20},{0,1,3,4,7,12,16,21},{0,1,2,4,8,13,17,22},{0,1,2,3,9,18,23},{0,6,7,8,9,10,14,19},{1,5,7,8,9,11,15,20},{2,5,6,8,9,12,16,21},{3,5,6,7,9,13,17,22},{4,5,6,7,8,18,23},{0,5,11,12,13,14,19},{1,6,10,12,13,15,20},{2,7,10,11,13,16,21},{3,8,10,11,12,17,22},{0,5,10,15,16,17,18,19},{1,6,11,14,16,17,18,20},{2,7,12,14,15,17,18,21},{3,8,13,14,15,16,18,22},{4,9,14,15,16,17,23},{0,5,10,14,20,21,22,23},{1,6,11,15,19,21,22,23},{2,7,12,16,19,20,22,23},{3,8,13,17,19,20,21,23},{4,9,18,19,20,21,22}];
weights=[676,756,240,521,50,985,546,75,129,605,740,246,67,785,760,157,800,78,954,550,55,237,425,90];
